100 4950
1 2 2
1 3 3
1 4 4
1 5 5
1 6 3
1 7 2
1 8 1
1 9 5
1 10 2
1 11 2
1 12 1
1 13 3
1 14 3
1 15 3
1 16 1
1 17 2
1 18 5
1 19 4
1 20 1
1 21 5
1 22 2
1 23 1
1 24 3
1 25 5
1 26 3
1 27 1
1 28 4
1 29 4
1 30 5
1 31 1
1 32 5
1 33 3
1 34 2
1 35 1
1 36 4
1 37 5
1 38 2
1 39 4
1 40 3
1 41 5
1 42 3
1 43 1
1 44 4
1 45 2
1 46 1
1 47 4
1 48 3
1 49 5
1 50 4
1 51 4
1 52 2
1 53 1
1 54 3
1 55 2
1 56 3
1 57 2
1 58 2
1 59 4
1 60 1
1 61 3
1 62 3
1 63 2
1 64 4
1 65 5
1 66 4
1 67 2
1 68 1
1 69 5
1 70 4
1 71 1
1 72 3
1 73 5
1 74 4
1 75 2
1 76 1
1 77 5
1 78 1
1 79 5
1 80 4
1 81 2
1 82 4
1 83 1
1 84 2
1 85 4
1 86 4
1 87 1
1 88 5
1 89 2
1 90 5
1 91 3
1 92 2
1 93 3
1 94 2
1 95 2
1 96 5
1 97 5
1 98 3
1 99 1
1 100 2
2 3 5
2 4 1
2 5 4
2 6 2
2 7 1
2 8 2
2 9 2
2 10 3
2 11 3
2 12 1
2 13 2
2 14 4
2 15 3
2 16 4
2 17 3
2 18 5
2 19 1
2 20 1
2 21 5
2 22 1
2 23 5
2 24 5
2 25 5
2 26 3
2 27 1
2 28 4
2 29 2
2 30 4
2 31 4
2 32 1
2 33 4
2 34 5
2 35 4
2 36 2
2 37 2
2 38 2
2 39 2
2 40 5
2 41 4
2 42 1
2 43 3
2 44 5
2 45 1
2 46 5
2 47 3
2 48 3
2 49 2
2 50 5
2 51 3
2 52 4
2 53 1
2 54 1
2 55 1
2 56 2
2 57 5
2 58 5
2 59 4
2 60 4
2 61 2
2 62 3
2 63 4
2 64 2
2 65 1
2 66 2
2 67 3
2 68 3
2 69 1
2 70 2
2 71 2
2 72 2
2 73 5
2 74 4
2 75 5
2 76 5
2 77 4
2 78 5
2 79 2
2 80 2
2 81 1
2 82 4
2 83 1
2 84 2
2 85 3
2 86 5
2 87 2
2 88 5
2 89 1
2 90 1
2 91 1
2 92 3
2 93 4
2 94 1
2 95 4
2 96 2
2 97 2
2 98 5
2 99 1
2 100 5
3 4 4
3 5 3
3 6 3
3 7 5
3 8 1
3 9 2
3 10 2
3 11 3
3 12 5
3 13 1
3 14 1
3 15 1
3 16 5
3 17 3
3 18 4
3 19 3
3 20 4
3 21 4
3 22 2
3 23 2
3 24 2
3 25 2
3 26 2
3 27 5
3 28 1
3 29 4
3 30 2
3 31 5
3 32 5
3 33 1
3 34 2
3 35 2
3 36 5
3 37 5
3 38 5
3 39 3
3 40 4
3 41 2
3 42 3
3 43 3
3 44 3
3 45 5
3 46 3
3 47 1
3 48 2
3 49 2
3 50 1
3 51 3
3 52 1
3 53 1
3 54 5
3 55 2
3 56 5
3 57 3
3 58 5
3 59 5
3 60 2
3 61 2
3 62 2
3 63 5
3 64 1
3 65 3
3 66 4
3 67 5
3 68 2
3 69 1
3 70 5
3 71 2
3 72 2
3 73 4
3 74 5
3 75 3
3 76 5
3 77 2
3 78 1
3 79 1
3 80 3
3 81 1
3 82 2
3 83 2
3 84 1
3 85 5
3 86 3
3 87 3
3 88 1
3 89 4
3 90 4
3 91 1
3 92 2
3 93 4
3 94 5
3 95 3
3 96 5
3 97 1
3 98 2
3 99 4
3 100 5
4 5 3
4 6 3
4 7 1
4 8 3
4 9 2
4 10 2
4 11 5
4 12 4
4 13 5
4 14 5
4 15 2
4 16 5
4 17 5
4 18 1
4 19 3
4 20 2
4 21 2
4 22 2
4 23 2
4 24 4
4 25 3
4 26 4
4 27 5
4 28 3
4 29 5
4 30 5
4 31 1
4 32 5
4 33 1
4 34 5
4 35 5
4 36 1
4 37 3
4 38 3
4 39 3
4 40 5
4 41 2
4 42 4
4 43 4
4 44 4
4 45 2
4 46 3
4 47 5
4 48 1
4 49 4
4 50 4
4 51 5
4 52 3
4 53 2
4 54 1
4 55 1
4 56 1
4 57 5
4 58 1
4 59 3
4 60 4
4 61 1
4 62 5
4 63 3
4 64 3
4 65 4
4 66 5
4 67 4
4 68 2
4 69 4
4 70 2
4 71 5
4 72 5
4 73 4
4 74 2
4 75 5
4 76 5
4 77 3
4 78 4
4 79 4
4 80 1
4 81 2
4 82 3
4 83 4
4 84 5
4 85 4
4 86 2
4 87 4
4 88 5
4 89 2
4 90 2
4 91 5
4 92 5
4 93 4
4 94 2
4 95 3
4 96 5
4 97 3
4 98 4
4 99 4
4 100 5
5 6 2
5 7 1
5 8 2
5 9 4
5 10 1
5 11 1
5 12 4
5 13 4
5 14 1
5 15 2
5 16 1
5 17 2
5 18 5
5 19 2
5 20 3
5 21 5
5 22 2
5 23 4
5 24 4
5 25 1
5 26 3
5 27 4
5 28 2
5 29 5
5 30 3
5 31 2
5 32 1
5 33 5
5 34 4
5 35 4
5 36 3
5 37 1
5 38 2
5 39 2
5 40 2
5 41 5
5 42 3
5 43 1
5 44 1
5 45 2
5 46 1
5 47 5
5 48 3
5 49 2
5 50 1
5 51 2
5 52 3
5 53 1
5 54 5
5 55 3
5 56 3
5 57 1
5 58 4
5 59 2
5 60 2
5 61 4
5 62 5
5 63 2
5 64 5
5 65 5
5 66 2
5 67 2
5 68 3
5 69 3
5 70 4
5 71 5
5 72 2
5 73 2
5 74 4
5 75 4
5 76 2
5 77 1
5 78 1
5 79 5
5 80 5
5 81 3
5 82 4
5 83 2
5 84 5
5 85 3
5 86 1
5 87 3
5 88 2
5 89 4
5 90 5
5 91 1
5 92 5
5 93 5
5 94 5
5 95 5
5 96 5
5 97 1
5 98 1
5 99 1
5 100 5
6 7 2
6 8 5
6 9 4
6 10 1
6 11 5
6 12 4
6 13 2
6 14 5
6 15 1
6 16 3
6 17 5
6 18 4
6 19 3
6 20 4
6 21 1
6 22 5
6 23 3
6 24 3
6 25 1
6 26 1
6 27 5
6 28 3
6 29 5
6 30 5
6 31 4
6 32 2
6 33 3
6 34 1
6 35 5
6 36 3
6 37 5
6 38 3
6 39 1
6 40 1
6 41 1
6 42 4
6 43 3
6 44 5
6 45 3
6 46 4
6 47 2
6 48 3
6 49 1
6 50 3
6 51 1
6 52 4
6 53 2
6 54 1
6 55 5
6 56 5
6 57 1
6 58 5
6 59 1
6 60 4
6 61 3
6 62 3
6 63 1
6 64 2
6 65 3
6 66 5
6 67 2
6 68 2
6 69 2
6 70 2
6 71 5
6 72 4
6 73 5
6 74 1
6 75 3
6 76 4
6 77 3
6 78 2
6 79 2
6 80 4
6 81 3
6 82 2
6 83 5
6 84 5
6 85 5
6 86 1
6 87 3
6 88 2
6 89 4
6 90 1
6 91 3
6 92 2
6 93 4
6 94 3
6 95 2
6 96 2
6 97 5
6 98 3
6 99 4
6 100 1
7 8 2
7 9 2
7 10 1
7 11 2
7 12 3
7 13 1
7 14 1
7 15 2
7 16 4
7 17 5
7 18 5
7 19 3
7 20 3
7 21 4
7 22 1
7 23 5
7 24 4
7 25 5
7 26 2
7 27 4
7 28 2
7 29 5
7 30 3
7 31 3
7 32 4
7 33 2
7 34 4
7 35 2
7 36 2
7 37 5
7 38 4
7 39 4
7 40 3
7 41 1
7 42 5
7 43 4
7 44 4
7 45 2
7 46 4
7 47 2
7 48 1
7 49 5
7 50 2
7 51 2
7 52 2
7 53 4
7 54 3
7 55 2
7 56 5
7 57 4
7 58 3
7 59 3
7 60 5
7 61 5
7 62 3
7 63 1
7 64 2
7 65 4
7 66 5
7 67 5
7 68 1
7 69 3
7 70 1
7 71 2
7 72 2
7 73 5
7 74 5
7 75 3
7 76 3
7 77 5
7 78 2
7 79 1
7 80 4
7 81 1
7 82 5
7 83 4
7 84 2
7 85 2
7 86 5
7 87 1
7 88 4
7 89 4
7 90 4
7 91 5
7 92 4
7 93 4
7 94 3
7 95 2
7 96 4
7 97 4
7 98 3
7 99 2
7 100 4
8 9 4
8 10 3
8 11 2
8 12 5
8 13 5
8 14 5
8 15 2
8 16 2
8 17 3
8 18 5
8 19 3
8 20 2
8 21 2
8 22 2
8 23 2
8 24 3
8 25 2
8 26 2
8 27 5
8 28 4
8 29 4
8 30 1
8 31 3
8 32 4
8 33 1
8 34 3
8 35 3
8 36 1
8 37 2
8 38 2
8 39 4
8 40 2
8 41 2
8 42 5
8 43 2
8 44 3
8 45 2
8 46 4
8 47 2
8 48 2
8 49 4
8 50 5
8 51 4
8 52 4
8 53 5
8 54 4
8 55 1
8 56 3
8 57 2
8 58 3
8 59 1
8 60 3
8 61 4
8 62 1
8 63 3
8 64 4
8 65 3
8 66 3
8 67 5
8 68 2
8 69 4
8 70 3
8 71 2
8 72 4
8 73 2
8 74 2
8 75 4
8 76 4
8 77 3
8 78 4
8 79 5
8 80 2
8 81 5
8 82 1
8 83 3
8 84 1
8 85 3
8 86 1
8 87 5
8 88 2
8 89 5
8 90 2
8 91 3
8 92 3
8 93 3
8 94 2
8 95 1
8 96 2
8 97 5
8 98 1
8 99 2
8 100 3
9 10 4
9 11 1
9 12 4
9 13 1
9 14 5
9 15 5
9 16 4
9 17 2
9 18 1
9 19 4
9 20 4
9 21 2
9 22 5
9 23 4
9 24 3
9 25 5
9 26 1
9 27 4
9 28 3
9 29 2
9 30 3
9 31 2
9 32 2
9 33 5
9 34 1
9 35 4
9 36 3
9 37 1
9 38 1
9 39 1
9 40 2
9 41 1
9 42 1
9 43 4
9 44 4
9 45 3
9 46 5
9 47 2
9 48 5
9 49 2
9 50 4
9 51 1
9 52 5
9 53 4
9 54 2
9 55 3
9 56 1
9 57 2
9 58 4
9 59 2
9 60 2
9 61 3
9 62 2
9 63 5
9 64 5
9 65 4
9 66 5
9 67 3
9 68 2
9 69 4
9 70 4
9 71 4
9 72 1
9 73 3
9 74 3
9 75 1
9 76 2
9 77 1
9 78 2
9 79 2
9 80 3
9 81 2
9 82 4
9 83 5
9 84 5
9 85 4
9 86 4
9 87 3
9 88 3
9 89 2
9 90 3
9 91 5
9 92 3
9 93 5
9 94 5
9 95 1
9 96 5
9 97 4
9 98 3
9 99 1
9 100 2
10 11 4
10 12 1
10 13 3
10 14 2
10 15 5
10 16 3
10 17 3
10 18 5
10 19 4
10 20 1
10 21 4
10 22 1
10 23 1
10 24 2
10 25 1
10 26 5
10 27 5
10 28 3
10 29 1
10 30 4
10 31 4
10 32 3
10 33 2
10 34 2
10 35 4
10 36 3
10 37 3
10 38 3
10 39 4
10 40 1
10 41 2
10 42 2
10 43 1
10 44 2
10 45 5
10 46 5
10 47 4
10 48 1
10 49 5
10 50 1
10 51 4
10 52 5
10 53 2
10 54 2
10 55 1
10 56 3
10 57 3
10 58 2
10 59 4
10 60 5
10 61 4
10 62 4
10 63 2
10 64 2
10 65 4
10 66 2
10 67 2
10 68 1
10 69 4
10 70 2
10 71 1
10 72 4
10 73 3
10 74 4
10 75 4
10 76 5
10 77 1
10 78 1
10 79 2
10 80 3
10 81 1
10 82 5
10 83 2
10 84 5
10 85 4
10 86 3
10 87 5
10 88 2
10 89 3
10 90 5
10 91 5
10 92 2
10 93 1
10 94 1
10 95 3
10 96 5
10 97 3
10 98 5
10 99 1
10 100 3
11 12 5
11 13 4
11 14 3
11 15 4
11 16 5
11 17 3
11 18 4
11 19 4
11 20 1
11 21 4
11 22 1
11 23 3
11 24 3
11 25 4
11 26 4
11 27 5
11 28 4
11 29 5
11 30 2
11 31 4
11 32 3
11 33 2
11 34 2
11 35 1
11 36 1
11 37 4
11 38 5
11 39 2
11 40 3
11 41 4
11 42 4
11 43 5
11 44 5
11 45 2
11 46 4
11 47 3
11 48 1
11 49 4
11 50 1
11 51 1
11 52 1
11 53 4
11 54 1
11 55 3
11 56 1
11 57 3
11 58 2
11 59 1
11 60 3
11 61 1
11 62 2
11 63 4
11 64 5
11 65 4
11 66 2
11 67 3
11 68 1
11 69 3
11 70 3
11 71 2
11 72 1
11 73 3
11 74 2
11 75 2
11 76 3
11 77 5
11 78 1
11 79 3
11 80 2
11 81 4
11 82 4
11 83 4
11 84 4
11 85 3
11 86 1
11 87 5
11 88 4
11 89 3
11 90 5
11 91 3
11 92 2
11 93 4
11 94 1
11 95 3
11 96 3
11 97 1
11 98 5
11 99 2
11 100 3
12 13 2
12 14 5
12 15 3
12 16 2
12 17 4
12 18 1
12 19 2
12 20 5
12 21 3
12 22 5
12 23 2
12 24 4
12 25 3
12 26 2
12 27 3
12 28 4
12 29 1
12 30 1
12 31 5
12 32 1
12 33 5
12 34 1
12 35 4
12 36 4
12 37 1
12 38 1
12 39 3
12 40 3
12 41 3
12 42 5
12 43 2
12 44 4
12 45 5
12 46 2
12 47 5
12 48 3
12 49 2
12 50 1
12 51 4
12 52 5
12 53 5
12 54 4
12 55 1
12 56 4
12 57 1
12 58 2
12 59 1
12 60 5
12 61 3
12 62 1
12 63 1
12 64 2
12 65 1
12 66 2
12 67 2
12 68 5
12 69 4
12 70 4
12 71 3
12 72 1
12 73 2
12 74 3
12 75 4
12 76 1
12 77 4
12 78 1
12 79 3
12 80 4
12 81 4
12 82 4
12 83 2
12 84 1
12 85 2
12 86 1
12 87 1
12 88 5
12 89 3
12 90 1
12 91 4
12 92 5
12 93 3
12 94 5
12 95 5
12 96 1
12 97 4
12 98 4
12 99 4
12 100 2
13 14 5
13 15 1
13 16 4
13 17 4
13 18 3
13 19 5
13 20 4
13 21 1
13 22 1
13 23 2
13 24 5
13 25 2
13 26 1
13 27 2
13 28 5
13 29 2
13 30 1
13 31 2
13 32 4
13 33 2
13 34 1
13 35 1
13 36 1
13 37 2
13 38 1
13 39 2
13 40 3
13 41 4
13 42 5
13 43 5
13 44 1
13 45 5
13 46 1
13 47 4
13 48 2
13 49 3
13 50 3
13 51 3
13 52 3
13 53 1
13 54 1
13 55 3
13 56 4
13 57 4
13 58 5
13 59 4
13 60 2
13 61 3
13 62 3
13 63 5
13 64 3
13 65 3
13 66 4
13 67 2
13 68 1
13 69 5
13 70 1
13 71 4
13 72 2
13 73 3
13 74 5
13 75 2
13 76 5
13 77 3
13 78 4
13 79 4
13 80 3
13 81 2
13 82 3
13 83 1
13 84 5
13 85 3
13 86 3
13 87 2
13 88 4
13 89 1
13 90 5
13 91 1
13 92 5
13 93 1
13 94 5
13 95 2
13 96 3
13 97 4
13 98 2
13 99 3
13 100 5
14 15 4
14 16 5
14 17 3
14 18 1
14 19 4
14 20 5
14 21 4
14 22 2
14 23 2
14 24 1
14 25 4
14 26 1
14 27 1
14 28 4
14 29 5
14 30 3
14 31 3
14 32 1
14 33 4
14 34 1
14 35 4
14 36 3
14 37 4
14 38 1
14 39 5
14 40 5
14 41 3
14 42 5
14 43 4
14 44 4
14 45 5
14 46 5
14 47 4
14 48 5
14 49 2
14 50 4
14 51 5
14 52 1
14 53 4
14 54 3
14 55 3
14 56 4
14 57 2
14 58 3
14 59 2
14 60 1
14 61 5
14 62 3
14 63 1
14 64 5
14 65 5
14 66 4
14 67 3
14 68 5
14 69 4
14 70 5
14 71 2
14 72 4
14 73 5
14 74 4
14 75 4
14 76 5
14 77 2
14 78 3
14 79 2
14 80 1
14 81 4
14 82 4
14 83 4
14 84 4
14 85 5
14 86 2
14 87 1
14 88 2
14 89 4
14 90 1
14 91 3
14 92 3
14 93 5
14 94 2
14 95 2
14 96 5
14 97 3
14 98 2
14 99 3
14 100 1
15 16 5
15 17 3
15 18 3
15 19 2
15 20 1
15 21 4
15 22 3
15 23 2
15 24 4
15 25 2
15 26 3
15 27 1
15 28 4
15 29 2
15 30 2
15 31 5
15 32 2
15 33 4
15 34 4
15 35 3
15 36 1
15 37 1
15 38 5
15 39 3
15 40 2
15 41 4
15 42 3
15 43 5
15 44 1
15 45 3
15 46 4
15 47 2
15 48 1
15 49 2
15 50 1
15 51 4
15 52 4
15 53 3
15 54 5
15 55 3
15 56 5
15 57 1
15 58 4
15 59 5
15 60 3
15 61 1
15 62 1
15 63 1
15 64 3
15 65 3
15 66 4
15 67 5
15 68 4
15 69 4
15 70 5
15 71 2
15 72 4
15 73 4
15 74 4
15 75 5
15 76 3
15 77 5
15 78 4
15 79 2
15 80 2
15 81 4
15 82 1
15 83 4
15 84 2
15 85 2
15 86 5
15 87 1
15 88 1
15 89 2
15 90 3
15 91 4
15 92 2
15 93 4
15 94 3
15 95 1
15 96 5
15 97 2
15 98 2
15 99 1
15 100 4
16 17 1
16 18 2
16 19 2
16 20 3
16 21 5
16 22 5
16 23 2
16 24 1
16 25 2
16 26 5
16 27 3
16 28 1
16 29 5
16 30 4
16 31 2
16 32 3
16 33 5
16 34 1
16 35 4
16 36 2
16 37 3
16 38 3
16 39 1
16 40 1
16 41 1
16 42 5
16 43 5
16 44 2
16 45 2
16 46 4
16 47 3
16 48 5
16 49 2
16 50 3
16 51 2
16 52 4
16 53 5
16 54 1
16 55 3
16 56 5
16 57 1
16 58 3
16 59 5
16 60 3
16 61 2
16 62 2
16 63 2
16 64 1
16 65 5
16 66 1
16 67 2
16 68 5
16 69 5
16 70 4
16 71 4
16 72 2
16 73 4
16 74 5
16 75 3
16 76 2
16 77 2
16 78 1
16 79 1
16 80 1
16 81 4
16 82 3
16 83 5
16 84 4
16 85 3
16 86 1
16 87 1
16 88 3
16 89 5
16 90 3
16 91 5
16 92 4
16 93 2
16 94 3
16 95 1
16 96 1
16 97 2
16 98 5
16 99 3
16 100 3
17 18 1
17 19 2
17 20 4
17 21 5
17 22 2
17 23 2
17 24 3
17 25 1
17 26 1
17 27 2
17 28 4
17 29 5
17 30 5
17 31 2
17 32 3
17 33 3
17 34 2
17 35 3
17 36 2
17 37 4
17 38 4
17 39 3
17 40 3
17 41 4
17 42 3
17 43 1
17 44 1
17 45 1
17 46 4
17 47 2
17 48 3
17 49 2
17 50 5
17 51 2
17 52 5
17 53 4
17 54 2
17 55 4
17 56 5
17 57 4
17 58 1
17 59 4
17 60 4
17 61 5
17 62 5
17 63 2
17 64 1
17 65 4
17 66 1
17 67 4
17 68 1
17 69 4
17 70 4
17 71 2
17 72 3
17 73 3
17 74 4
17 75 3
17 76 1
17 77 4
17 78 1
17 79 2
17 80 3
17 81 4
17 82 3
17 83 2
17 84 3
17 85 4
17 86 4
17 87 1
17 88 2
17 89 5
17 90 1
17 91 5
17 92 2
17 93 2
17 94 3
17 95 4
17 96 4
17 97 1
17 98 5
17 99 4
17 100 5
18 19 1
18 20 4
18 21 3
18 22 3
18 23 3
18 24 2
18 25 2
18 26 5
18 27 2
18 28 2
18 29 1
18 30 4
18 31 4
18 32 1
18 33 2
18 34 1
18 35 1
18 36 5
18 37 4
18 38 5
18 39 2
18 40 5
18 41 5
18 42 4
18 43 2
18 44 2
18 45 5
18 46 1
18 47 5
18 48 3
18 49 1
18 50 5
18 51 3
18 52 3
18 53 3
18 54 2
18 55 4
18 56 4
18 57 2
18 58 2
18 59 5
18 60 1
18 61 1
18 62 2
18 63 5
18 64 1
18 65 1
18 66 1
18 67 5
18 68 4
18 69 3
18 70 5
18 71 2
18 72 3
18 73 3
18 74 1
18 75 5
18 76 2
18 77 1
18 78 4
18 79 3
18 80 5
18 81 4
18 82 5
18 83 5
18 84 1
18 85 3
18 86 1
18 87 2
18 88 5
18 89 3
18 90 5
18 91 2
18 92 5
18 93 2
18 94 2
18 95 3
18 96 2
18 97 1
18 98 2
18 99 2
18 100 4
19 20 4
19 21 4
19 22 4
19 23 4
19 24 3
19 25 4
19 26 4
19 27 3
19 28 3
19 29 4
19 30 3
19 31 3
19 32 2
19 33 4
19 34 5
19 35 1
19 36 1
19 37 2
19 38 3
19 39 5
19 40 2
19 41 1
19 42 1
19 43 3
19 44 5
19 45 5
19 46 5
19 47 1
19 48 1
19 49 4
19 50 1
19 51 3
19 52 4
19 53 5
19 54 3
19 55 3
19 56 4
19 57 2
19 58 2
19 59 4
19 60 3
19 61 5
19 62 3
19 63 1
19 64 5
19 65 3
19 66 2
19 67 1
19 68 5
19 69 1
19 70 2
19 71 5
19 72 1
19 73 3
19 74 2
19 75 1
19 76 2
19 77 1
19 78 5
19 79 5
19 80 3
19 81 4
19 82 5
19 83 1
19 84 1
19 85 2
19 86 1
19 87 2
19 88 4
19 89 3
19 90 4
19 91 3
19 92 2
19 93 5
19 94 3
19 95 4
19 96 5
19 97 2
19 98 4
19 99 5
19 100 4
20 21 5
20 22 1
20 23 4
20 24 1
20 25 2
20 26 5
20 27 5
20 28 3
20 29 2
20 30 4
20 31 3
20 32 1
20 33 5
20 34 2
20 35 2
20 36 4
20 37 2
20 38 3
20 39 5
20 40 2
20 41 2
20 42 5
20 43 3
20 44 1
20 45 4
20 46 5
20 47 5
20 48 3
20 49 4
20 50 1
20 51 5
20 52 2
20 53 3
20 54 5
20 55 2
20 56 2
20 57 2
20 58 5
20 59 1
20 60 1
20 61 5
20 62 2
20 63 1
20 64 2
20 65 3
20 66 1
20 67 1
20 68 3
20 69 3
20 70 3
20 71 4
20 72 1
20 73 2
20 74 1
20 75 2
20 76 1
20 77 4
20 78 1
20 79 3
20 80 4
20 81 4
20 82 3
20 83 2
20 84 5
20 85 1
20 86 1
20 87 5
20 88 3
20 89 5
20 90 1
20 91 1
20 92 2
20 93 1
20 94 2
20 95 3
20 96 2
20 97 4
20 98 5
20 99 3
20 100 2
21 22 2
21 23 2
21 24 4
21 25 1
21 26 2
21 27 3
21 28 3
21 29 4
21 30 5
21 31 4
21 32 4
21 33 3
21 34 2
21 35 2
21 36 4
21 37 3
21 38 5
21 39 4
21 40 4
21 41 2
21 42 1
21 43 4
21 44 2
21 45 4
21 46 4
21 47 5
21 48 4
21 49 2
21 50 3
21 51 2
21 52 1
21 53 5
21 54 5
21 55 4
21 56 1
21 57 2
21 58 4
21 59 2
21 60 3
21 61 1
21 62 3
21 63 2
21 64 5
21 65 4
21 66 5
21 67 4
21 68 5
21 69 4
21 70 3
21 71 2
21 72 3
21 73 4
21 74 5
21 75 4
21 76 2
21 77 3
21 78 2
21 79 3
21 80 3
21 81 1
21 82 1
21 83 5
21 84 1
21 85 4
21 86 4
21 87 1
21 88 3
21 89 1
21 90 5
21 91 5
21 92 5
21 93 3
21 94 3
21 95 1
21 96 4
21 97 2
21 98 1
21 99 1
21 100 4
22 23 4
22 24 5
22 25 1
22 26 2
22 27 1
22 28 2
22 29 5
22 30 1
22 31 3
22 32 5
22 33 2
22 34 1
22 35 5
22 36 5
22 37 4
22 38 1
22 39 5
22 40 4
22 41 3
22 42 1
22 43 4
22 44 1
22 45 4
22 46 5
22 47 2
22 48 2
22 49 4
22 50 3
22 51 3
22 52 2
22 53 5
22 54 3
22 55 1
22 56 1
22 57 4
22 58 3
22 59 1
22 60 3
22 61 5
22 62 4
22 63 5
22 64 3
22 65 3
22 66 2
22 67 1
22 68 2
22 69 1
22 70 1
22 71 5
22 72 1
22 73 4
22 74 1
22 75 4
22 76 4
22 77 4
22 78 1
22 79 3
22 80 4
22 81 3
22 82 1
22 83 2
22 84 4
22 85 4
22 86 5
22 87 1
22 88 3
22 89 2
22 90 3
22 91 2
22 92 2
22 93 1
22 94 2
22 95 4
22 96 1
22 97 1
22 98 3
22 99 4
22 100 5
23 24 2
23 25 2
23 26 3
23 27 3
23 28 5
23 29 2
23 30 3
23 31 3
23 32 3
23 33 1
23 34 5
23 35 3
23 36 1
23 37 4
23 38 1
23 39 4
23 40 3
23 41 2
23 42 2
23 43 2
23 44 1
23 45 5
23 46 2
23 47 1
23 48 1
23 49 3
23 50 5
23 51 4
23 52 1
23 53 5
23 54 3
23 55 4
23 56 4
23 57 1
23 58 2
23 59 5
23 60 2
23 61 4
23 62 1
23 63 4
23 64 2
23 65 3
23 66 3
23 67 5
23 68 1
23 69 3
23 70 4
23 71 3
23 72 1
23 73 2
23 74 2
23 75 2
23 76 2
23 77 2
23 78 4
23 79 1
23 80 5
23 81 2
23 82 2
23 83 3
23 84 1
23 85 4
23 86 3
23 87 5
23 88 1
23 89 3
23 90 5
23 91 2
23 92 2
23 93 1
23 94 5
23 95 1
23 96 2
23 97 5
23 98 2
23 99 1
23 100 2
24 25 4
24 26 1
24 27 4
24 28 5
24 29 3
24 30 1
24 31 5
24 32 5
24 33 4
24 34 4
24 35 4
24 36 3
24 37 4
24 38 4
24 39 1
24 40 2
24 41 3
24 42 3
24 43 4
24 44 1
24 45 4
24 46 3
24 47 3
24 48 1
24 49 5
24 50 3
24 51 2
24 52 4
24 53 1
24 54 2
24 55 1
24 56 5
24 57 2
24 58 1
24 59 4
24 60 2
24 61 1
24 62 5
24 63 1
24 64 5
24 65 5
24 66 2
24 67 1
24 68 4
24 69 2
24 70 4
24 71 1
24 72 4
24 73 5
24 74 4
24 75 1
24 76 5
24 77 1
24 78 3
24 79 4
24 80 4
24 81 5
24 82 1
24 83 2
24 84 1
24 85 5
24 86 4
24 87 4
24 88 5
24 89 1
24 90 5
24 91 5
24 92 3
24 93 4
24 94 4
24 95 1
24 96 2
24 97 5
24 98 2
24 99 2
24 100 3
25 26 5
25 27 3
25 28 2
25 29 2
25 30 4
25 31 2
25 32 2
25 33 2
25 34 5
25 35 5
25 36 3
25 37 5
25 38 3
25 39 4
25 40 2
25 41 2
25 42 5
25 43 2
25 44 5
25 45 1
25 46 5
25 47 1
25 48 1
25 49 1
25 50 1
25 51 2
25 52 2
25 53 1
25 54 5
25 55 1
25 56 3
25 57 1
25 58 2
25 59 3
25 60 2
25 61 1
25 62 3
25 63 3
25 64 3
25 65 3
25 66 1
25 67 3
25 68 1
25 69 3
25 70 4
25 71 1
25 72 2
25 73 2
25 74 2
25 75 1
25 76 3
25 77 1
25 78 4
25 79 4
25 80 1
25 81 2
25 82 2
25 83 3
25 84 1
25 85 1
25 86 4
25 87 4
25 88 2
25 89 2
25 90 5
25 91 3
25 92 1
25 93 3
25 94 5
25 95 1
25 96 4
25 97 2
25 98 1
25 99 2
25 100 4
26 27 1
26 28 1
26 29 5
26 30 3
26 31 4
26 32 5
26 33 4
26 34 2
26 35 5
26 36 3
26 37 1
26 38 3
26 39 2
26 40 3
26 41 3
26 42 2
26 43 1
26 44 2
26 45 5
26 46 4
26 47 4
26 48 5
26 49 3
26 50 4
26 51 4
26 52 3
26 53 4
26 54 1
26 55 4
26 56 5
26 57 4
26 58 4
26 59 1
26 60 2
26 61 2
26 62 1
26 63 2
26 64 2
26 65 5
26 66 2
26 67 2
26 68 4
26 69 5
26 70 5
26 71 4
26 72 5
26 73 1
26 74 1
26 75 5
26 76 5
26 77 3
26 78 4
26 79 5
26 80 4
26 81 5
26 82 3
26 83 1
26 84 2
26 85 2
26 86 4
26 87 5
26 88 4
26 89 2
26 90 4
26 91 2
26 92 2
26 93 4
26 94 5
26 95 4
26 96 5
26 97 5
26 98 3
26 99 4
26 100 2
27 28 5
27 29 2
27 30 2
27 31 4
27 32 3
27 33 4
27 34 2
27 35 5
27 36 1
27 37 1
27 38 3
27 39 5
27 40 2
27 41 4
27 42 4
27 43 2
27 44 1
27 45 5
27 46 1
27 47 5
27 48 5
27 49 5
27 50 3
27 51 5
27 52 1
27 53 5
27 54 1
27 55 1
27 56 1
27 57 5
27 58 2
27 59 5
27 60 4
27 61 2
27 62 4
27 63 3
27 64 3
27 65 1
27 66 2
27 67 5
27 68 4
27 69 2
27 70 5
27 71 2
27 72 4
27 73 5
27 74 3
27 75 1
27 76 5
27 77 3
27 78 1
27 79 5
27 80 5
27 81 4
27 82 5
27 83 1
27 84 1
27 85 3
27 86 2
27 87 4
27 88 4
27 89 3
27 90 1
27 91 3
27 92 5
27 93 4
27 94 3
27 95 3
27 96 3
27 97 3
27 98 3
27 99 1
27 100 4
28 29 4
28 30 1
28 31 2
28 32 1
28 33 4
28 34 1
28 35 2
28 36 2
28 37 3
28 38 5
28 39 5
28 40 1
28 41 5
28 42 3
28 43 3
28 44 1
28 45 3
28 46 3
28 47 1
28 48 4
28 49 5
28 50 1
28 51 2
28 52 3
28 53 5
28 54 4
28 55 2
28 56 4
28 57 5
28 58 2
28 59 4
28 60 5
28 61 4
28 62 2
28 63 1
28 64 3
28 65 5
28 66 2
28 67 4
28 68 3
28 69 1
28 70 3
28 71 1
28 72 1
28 73 3
28 74 4
28 75 5
28 76 5
28 77 2
28 78 5
28 79 4
28 80 1
28 81 4
28 82 2
28 83 1
28 84 1
28 85 2
28 86 4
28 87 4
28 88 5
28 89 5
28 90 1
28 91 5
28 92 2
28 93 5
28 94 5
28 95 5
28 96 2
28 97 4
28 98 2
28 99 1
28 100 1
29 30 2
29 31 3
29 32 2
29 33 2
29 34 5
29 35 4
29 36 4
29 37 4
29 38 2
29 39 2
29 40 2
29 41 3
29 42 5
29 43 5
29 44 1
29 45 4
29 46 5
29 47 1
29 48 4
29 49 5
29 50 3
29 51 4
29 52 1
29 53 4
29 54 4
29 55 3
29 56 2
29 57 4
29 58 1
29 59 2
29 60 4
29 61 1
29 62 3
29 63 5
29 64 1
29 65 4
29 66 4
29 67 5
29 68 2
29 69 3
29 70 1
29 71 2
29 72 4
29 73 4
29 74 1
29 75 2
29 76 2
29 77 2
29 78 4
29 79 5
29 80 4
29 81 1
29 82 3
29 83 5
29 84 5
29 85 2
29 86 3
29 87 2
29 88 3
29 89 1
29 90 5
29 91 2
29 92 4
29 93 5
29 94 4
29 95 5
29 96 4
29 97 3
29 98 5
29 99 1
29 100 4
30 31 2
30 32 3
30 33 3
30 34 5
30 35 3
30 36 1
30 37 4
30 38 2
30 39 2
30 40 3
30 41 4
30 42 4
30 43 4
30 44 4
30 45 4
30 46 2
30 47 4
30 48 4
30 49 2
30 50 3
30 51 3
30 52 1
30 53 4
30 54 3
30 55 1
30 56 3
30 57 1
30 58 3
30 59 4
30 60 2
30 61 4
30 62 3
30 63 5
30 64 4
30 65 5
30 66 2
30 67 1
30 68 1
30 69 3
30 70 1
30 71 2
30 72 3
30 73 3
30 74 5
30 75 4
30 76 5
30 77 5
30 78 2
30 79 3
30 80 4
30 81 1
30 82 1
30 83 2
30 84 2
30 85 1
30 86 4
30 87 2
30 88 5
30 89 1
30 90 1
30 91 1
30 92 2
30 93 2
30 94 5
30 95 1
30 96 2
30 97 3
30 98 3
30 99 4
30 100 5
31 32 2
31 33 1
31 34 2
31 35 2
31 36 2
31 37 3
31 38 2
31 39 4
31 40 1
31 41 5
31 42 1
31 43 1
31 44 1
31 45 1
31 46 1
31 47 1
31 48 5
31 49 1
31 50 2
31 51 2
31 52 5
31 53 2
31 54 1
31 55 5
31 56 5
31 57 1
31 58 3
31 59 1
31 60 3
31 61 4
31 62 5
31 63 4
31 64 3
31 65 5
31 66 3
31 67 1
31 68 5
31 69 3
31 70 3
31 71 4
31 72 4
31 73 5
31 74 3
31 75 5
31 76 1
31 77 4
31 78 4
31 79 4
31 80 3
31 81 5
31 82 1
31 83 2
31 84 3
31 85 2
31 86 4
31 87 1
31 88 3
31 89 1
31 90 1
31 91 2
31 92 2
31 93 2
31 94 2
31 95 3
31 96 1
31 97 4
31 98 2
31 99 2
31 100 2
32 33 5
32 34 5
32 35 2
32 36 2
32 37 5
32 38 3
32 39 3
32 40 1
32 41 1
32 42 5
32 43 4
32 44 5
32 45 2
32 46 4
32 47 3
32 48 5
32 49 3
32 50 3
32 51 3
32 52 5
32 53 2
32 54 1
32 55 5
32 56 5
32 57 3
32 58 1
32 59 4
32 60 2
32 61 5
32 62 5
32 63 2
32 64 1
32 65 5
32 66 4
32 67 4
32 68 1
32 69 4
32 70 1
32 71 1
32 72 4
32 73 1
32 74 3
32 75 4
32 76 2
32 77 1
32 78 4
32 79 5
32 80 4
32 81 1
32 82 1
32 83 5
32 84 5
32 85 2
32 86 5
32 87 3
32 88 1
32 89 2
32 90 4
32 91 1
32 92 3
32 93 1
32 94 5
32 95 4
32 96 2
32 97 3
32 98 2
32 99 4
32 100 5
33 34 2
33 35 1
33 36 4
33 37 3
33 38 5
33 39 3
33 40 3
33 41 5
33 42 2
33 43 2
33 44 4
33 45 2
33 46 4
33 47 1
33 48 5
33 49 5
33 50 2
33 51 5
33 52 5
33 53 4
33 54 4
33 55 4
33 56 4
33 57 1
33 58 4
33 59 3
33 60 1
33 61 1
33 62 1
33 63 5
33 64 3
33 65 5
33 66 4
33 67 2
33 68 3
33 69 1
33 70 2
33 71 2
33 72 2
33 73 4
33 74 1
33 75 3
33 76 1
33 77 5
33 78 5
33 79 4
33 80 5
33 81 2
33 82 4
33 83 2
33 84 5
33 85 2
33 86 1
33 87 3
33 88 4
33 89 5
33 90 4
33 91 2
33 92 2
33 93 5
33 94 4
33 95 1
33 96 1
33 97 5
33 98 3
33 99 4
33 100 4
34 35 2
34 36 1
34 37 1
34 38 5
34 39 3
34 40 5
34 41 3
34 42 4
34 43 1
34 44 5
34 45 3
34 46 3
34 47 3
34 48 1
34 49 2
34 50 2
34 51 4
34 52 5
34 53 2
34 54 3
34 55 1
34 56 1
34 57 2
34 58 4
34 59 3
34 60 5
34 61 5
34 62 1
34 63 5
34 64 4
34 65 4
34 66 3
34 67 4
34 68 5
34 69 3
34 70 3
34 71 5
34 72 5
34 73 2
34 74 1
34 75 4
34 76 3
34 77 1
34 78 1
34 79 1
34 80 1
34 81 4
34 82 1
34 83 4
34 84 1
34 85 5
34 86 4
34 87 1
34 88 1
34 89 2
34 90 3
34 91 4
34 92 2
34 93 5
34 94 4
34 95 1
34 96 2
34 97 3
34 98 1
34 99 5
34 100 1
35 36 4
35 37 4
35 38 4
35 39 3
35 40 4
35 41 3
35 42 4
35 43 1
35 44 5
35 45 2
35 46 5
35 47 5
35 48 3
35 49 3
35 50 5
35 51 3
35 52 4
35 53 3
35 54 1
35 55 1
35 56 3
35 57 1
35 58 2
35 59 4
35 60 3
35 61 5
35 62 5
35 63 5
35 64 3
35 65 1
35 66 2
35 67 4
35 68 5
35 69 3
35 70 2
35 71 1
35 72 2
35 73 5
35 74 5
35 75 5
35 76 1
35 77 2
35 78 4
35 79 2
35 80 3
35 81 4
35 82 3
35 83 4
35 84 3
35 85 5
35 86 3
35 87 1
35 88 3
35 89 3
35 90 2
35 91 2
35 92 3
35 93 5
35 94 2
35 95 3
35 96 4
35 97 5
35 98 5
35 99 4
35 100 1
36 37 1
36 38 3
36 39 5
36 40 3
36 41 1
36 42 5
36 43 2
36 44 4
36 45 1
36 46 5
36 47 3
36 48 5
36 49 4
36 50 5
36 51 4
36 52 4
36 53 5
36 54 1
36 55 3
36 56 4
36 57 2
36 58 2
36 59 2
36 60 3
36 61 5
36 62 1
36 63 2
36 64 3
36 65 5
36 66 3
36 67 4
36 68 4
36 69 5
36 70 3
36 71 1
36 72 4
36 73 4
36 74 4
36 75 5
36 76 4
36 77 5
36 78 2
36 79 4
36 80 1
36 81 2
36 82 3
36 83 1
36 84 1
36 85 2
36 86 3
36 87 1
36 88 1
36 89 5
36 90 5
36 91 2
36 92 3
36 93 3
36 94 4
36 95 3
36 96 3
36 97 1
36 98 2
36 99 5
36 100 1
37 38 3
37 39 5
37 40 5
37 41 4
37 42 4
37 43 3
37 44 4
37 45 4
37 46 5
37 47 4
37 48 1
37 49 5
37 50 4
37 51 4
37 52 2
37 53 5
37 54 4
37 55 5
37 56 4
37 57 2
37 58 2
37 59 5
37 60 1
37 61 4
37 62 2
37 63 2
37 64 4
37 65 4
37 66 3
37 67 4
37 68 3
37 69 5
37 70 5
37 71 1
37 72 3
37 73 1
37 74 2
37 75 5
37 76 3
37 77 3
37 78 5
37 79 1
37 80 3
37 81 2
37 82 5
37 83 4
37 84 5
37 85 3
37 86 4
37 87 1
37 88 4
37 89 2
37 90 5
37 91 5
37 92 4
37 93 3
37 94 1
37 95 3
37 96 1
37 97 1
37 98 5
37 99 2
37 100 5
38 39 3
38 40 3
38 41 4
38 42 3
38 43 5
38 44 3
38 45 2
38 46 5
38 47 1
38 48 4
38 49 4
38 50 4
38 51 5
38 52 1
38 53 2
38 54 2
38 55 5
38 56 5
38 57 2
38 58 2
38 59 1
38 60 2
38 61 5
38 62 5
38 63 1
38 64 3
38 65 3
38 66 2
38 67 1
38 68 4
38 69 4
38 70 3
38 71 2
38 72 2
38 73 2
38 74 4
38 75 5
38 76 1
38 77 1
38 78 3
38 79 3
38 80 3
38 81 5
38 82 1
38 83 1
38 84 4
38 85 1
38 86 3
38 87 4
38 88 2
38 89 5
38 90 3
38 91 3
38 92 3
38 93 2
38 94 1
38 95 5
38 96 5
38 97 3
38 98 2
38 99 5
38 100 5
39 40 2
39 41 5
39 42 4
39 43 1
39 44 2
39 45 3
39 46 1
39 47 3
39 48 2
39 49 4
39 50 5
39 51 3
39 52 2
39 53 4
39 54 1
39 55 4
39 56 3
39 57 1
39 58 3
39 59 4
39 60 2
39 61 4
39 62 1
39 63 2
39 64 2
39 65 5
39 66 4
39 67 4
39 68 3
39 69 1
39 70 4
39 71 4
39 72 3
39 73 1
39 74 3
39 75 3
39 76 2
39 77 4
39 78 1
39 79 1
39 80 3
39 81 1
39 82 3
39 83 5
39 84 5
39 85 5
39 86 3
39 87 2
39 88 5
39 89 1
39 90 2
39 91 3
39 92 2
39 93 5
39 94 5
39 95 1
39 96 4
39 97 1
39 98 5
39 99 1
39 100 5
40 41 1
40 42 3
40 43 2
40 44 4
40 45 2
40 46 5
40 47 5
40 48 2
40 49 1
40 50 3
40 51 3
40 52 1
40 53 1
40 54 4
40 55 4
40 56 1
40 57 5
40 58 2
40 59 4
40 60 2
40 61 5
40 62 5
40 63 3
40 64 5
40 65 3
40 66 1
40 67 2
40 68 2
40 69 2
40 70 3
40 71 3
40 72 3
40 73 1
40 74 2
40 75 4
40 76 4
40 77 5
40 78 5
40 79 5
40 80 3
40 81 2
40 82 5
40 83 4
40 84 4
40 85 3
40 86 3
40 87 1
40 88 4
40 89 2
40 90 4
40 91 4
40 92 3
40 93 2
40 94 3
40 95 3
40 96 4
40 97 4
40 98 2
40 99 1
40 100 3
41 42 2
41 43 2
41 44 5
41 45 2
41 46 3
41 47 3
41 48 5
41 49 2
41 50 1
41 51 5
41 52 4
41 53 4
41 54 1
41 55 2
41 56 4
41 57 3
41 58 5
41 59 5
41 60 3
41 61 3
41 62 2
41 63 2
41 64 3
41 65 1
41 66 4
41 67 1
41 68 3
41 69 5
41 70 5
41 71 1
41 72 2
41 73 1
41 74 1
41 75 4
41 76 2
41 77 2
41 78 4
41 79 4
41 80 2
41 81 4
41 82 2
41 83 1
41 84 5
41 85 5
41 86 5
41 87 3
41 88 4
41 89 4
41 90 3
41 91 1
41 92 1
41 93 1
41 94 1
41 95 2
41 96 1
41 97 5
41 98 4
41 99 3
41 100 1
42 43 3
42 44 5
42 45 3
42 46 5
42 47 3
42 48 3
42 49 5
42 50 1
42 51 2
42 52 2
42 53 4
42 54 5
42 55 4
42 56 4
42 57 3
42 58 5
42 59 4
42 60 5
42 61 2
42 62 2
42 63 2
42 64 4
42 65 4
42 66 2
42 67 4
42 68 4
42 69 3
42 70 3
42 71 3
42 72 5
42 73 2
42 74 2
42 75 1
42 76 1
42 77 4
42 78 5
42 79 5
42 80 3
42 81 3
42 82 3
42 83 5
42 84 5
42 85 4
42 86 2
42 87 3
42 88 5
42 89 4
42 90 1
42 91 4
42 92 3
42 93 2
42 94 1
42 95 1
42 96 3
42 97 5
42 98 3
42 99 3
42 100 2
43 44 1
43 45 4
43 46 4
43 47 5
43 48 5
43 49 1
43 50 3
43 51 5
43 52 4
43 53 1
43 54 5
43 55 3
43 56 1
43 57 2
43 58 2
43 59 2
43 60 4
43 61 4
43 62 5
43 63 4
43 64 1
43 65 2
43 66 5
43 67 4
43 68 4
43 69 4
43 70 1
43 71 2
43 72 5
43 73 3
43 74 1
43 75 5
43 76 4
43 77 4
43 78 2
43 79 3
43 80 1
43 81 4
43 82 5
43 83 2
43 84 5
43 85 1
43 86 5
43 87 1
43 88 4
43 89 5
43 90 1
43 91 1
43 92 3
43 93 3
43 94 2
43 95 1
43 96 3
43 97 1
43 98 4
43 99 2
43 100 1
44 45 5
44 46 5
44 47 1
44 48 3
44 49 5
44 50 2
44 51 4
44 52 5
44 53 1
44 54 5
44 55 3
44 56 4
44 57 4
44 58 2
44 59 4
44 60 1
44 61 5
44 62 4
44 63 5
44 64 5
44 65 3
44 66 4
44 67 4
44 68 5
44 69 4
44 70 3
44 71 2
44 72 2
44 73 4
44 74 2
44 75 2
44 76 5
44 77 2
44 78 2
44 79 2
44 80 2
44 81 1
44 82 2
44 83 4
44 84 3
44 85 2
44 86 1
44 87 4
44 88 1
44 89 5
44 90 4
44 91 2
44 92 2
44 93 5
44 94 1
44 95 4
44 96 4
44 97 3
44 98 2
44 99 5
44 100 5
45 46 2
45 47 4
45 48 3
45 49 1
45 50 5
45 51 3
45 52 4
45 53 2
45 54 2
45 55 3
45 56 4
45 57 1
45 58 1
45 59 5
45 60 2
45 61 4
45 62 5
45 63 4
45 64 1
45 65 1
45 66 4
45 67 3
45 68 5
45 69 3
45 70 4
45 71 2
45 72 3
45 73 5
45 74 5
45 75 3
45 76 4
45 77 2
45 78 4
45 79 4
45 80 4
45 81 4
45 82 1
45 83 2
45 84 3
45 85 3
45 86 4
45 87 3
45 88 3
45 89 3
45 90 2
45 91 5
45 92 3
45 93 1
45 94 1
45 95 5
45 96 4
45 97 4
45 98 2
45 99 2
45 100 2
46 47 1
46 48 1
46 49 2
46 50 2
46 51 4
46 52 1
46 53 1
46 54 4
46 55 2
46 56 5
46 57 5
46 58 1
46 59 1
46 60 3
46 61 1
46 62 4
46 63 3
46 64 4
46 65 1
46 66 4
46 67 2
46 68 1
46 69 5
46 70 4
46 71 3
46 72 1
46 73 3
46 74 5
46 75 5
46 76 1
46 77 2
46 78 3
46 79 3
46 80 5
46 81 3
46 82 4
46 83 5
46 84 3
46 85 2
46 86 3
46 87 1
46 88 4
46 89 3
46 90 5
46 91 4
46 92 4
46 93 4
46 94 5
46 95 3
46 96 5
46 97 3
46 98 1
46 99 4
46 100 5
47 48 5
47 49 1
47 50 4
47 51 3
47 52 1
47 53 5
47 54 2
47 55 4
47 56 5
47 57 5
47 58 4
47 59 2
47 60 4
47 61 3
47 62 5
47 63 4
47 64 4
47 65 4
47 66 1
47 67 4
47 68 4
47 69 3
47 70 1
47 71 5
47 72 5
47 73 2
47 74 3
47 75 1
47 76 3
47 77 1
47 78 5
47 79 2
47 80 5
47 81 2
47 82 2
47 83 1
47 84 4
47 85 1
47 86 1
47 87 1
47 88 2
47 89 4
47 90 4
47 91 4
47 92 4
47 93 2
47 94 5
47 95 2
47 96 1
47 97 4
47 98 4
47 99 5
47 100 3
48 49 1
48 50 1
48 51 4
48 52 4
48 53 4
48 54 4
48 55 3
48 56 2
48 57 2
48 58 1
48 59 3
48 60 2
48 61 1
48 62 2
48 63 4
48 64 2
48 65 4
48 66 1
48 67 4
48 68 4
48 69 4
48 70 2
48 71 2
48 72 3
48 73 3
48 74 2
48 75 5
48 76 1
48 77 2
48 78 3
48 79 4
48 80 1
48 81 1
48 82 5
48 83 1
48 84 3
48 85 5
48 86 4
48 87 1
48 88 2
48 89 1
48 90 1
48 91 1
48 92 4
48 93 2
48 94 3
48 95 4
48 96 5
48 97 5
48 98 2
48 99 5
48 100 2
49 50 4
49 51 5
49 52 4
49 53 2
49 54 3
49 55 5
49 56 1
49 57 5
49 58 4
49 59 4
49 60 2
49 61 3
49 62 4
49 63 5
49 64 1
49 65 1
49 66 2
49 67 1
49 68 5
49 69 4
49 70 3
49 71 1
49 72 4
49 73 2
49 74 5
49 75 5
49 76 3
49 77 3
49 78 3
49 79 3
49 80 1
49 81 3
49 82 3
49 83 5
49 84 1
49 85 5
49 86 2
49 87 3
49 88 2
49 89 4
49 90 4
49 91 2
49 92 4
49 93 1
49 94 3
49 95 1
49 96 4
49 97 3
49 98 4
49 99 5
49 100 2
50 51 1
50 52 2
50 53 1
50 54 1
50 55 3
50 56 1
50 57 4
50 58 5
50 59 3
50 60 5
50 61 1
50 62 1
50 63 3
50 64 3
50 65 2
50 66 5
50 67 5
50 68 5
50 69 1
50 70 3
50 71 3
50 72 2
50 73 1
50 74 5
50 75 5
50 76 3
50 77 1
50 78 5
50 79 2
50 80 3
50 81 2
50 82 1
50 83 1
50 84 3
50 85 3
50 86 3
50 87 5
50 88 3
50 89 2
50 90 4
50 91 3
50 92 5
50 93 1
50 94 5
50 95 5
50 96 5
50 97 3
50 98 4
50 99 3
50 100 4
51 52 1
51 53 4
51 54 5
51 55 2
51 56 4
51 57 3
51 58 4
51 59 4
51 60 5
51 61 4
51 62 4
51 63 3
51 64 3
51 65 3
51 66 3
51 67 2
51 68 2
51 69 5
51 70 2
51 71 2
51 72 4
51 73 3
51 74 5
51 75 1
51 76 1
51 77 2
51 78 4
51 79 1
51 80 5
51 81 4
51 82 1
51 83 2
51 84 4
51 85 3
51 86 2
51 87 1
51 88 1
51 89 5
51 90 4
51 91 5
51 92 3
51 93 1
51 94 4
51 95 5
51 96 1
51 97 4
51 98 5
51 99 5
51 100 2
52 53 4
52 54 4
52 55 5
52 56 1
52 57 3
52 58 3
52 59 1
52 60 2
52 61 4
52 62 5
52 63 1
52 64 3
52 65 2
52 66 3
52 67 5
52 68 3
52 69 2
52 70 5
52 71 2
52 72 2
52 73 4
52 74 1
52 75 5
52 76 4
52 77 5
52 78 5
52 79 4
52 80 3
52 81 2
52 82 5
52 83 2
52 84 1
52 85 2
52 86 2
52 87 5
52 88 5
52 89 5
52 90 3
52 91 5
52 92 1
52 93 2
52 94 1
52 95 1
52 96 3
52 97 5
52 98 3
52 99 1
52 100 3
53 54 3
53 55 2
53 56 5
53 57 3
53 58 5
53 59 4
53 60 1
53 61 5
53 62 4
53 63 4
53 64 3
53 65 5
53 66 3
53 67 1
53 68 4
53 69 3
53 70 5
53 71 3
53 72 4
53 73 2
53 74 3
53 75 4
53 76 4
53 77 4
53 78 2
53 79 4
53 80 4
53 81 3
53 82 5
53 83 2
53 84 3
53 85 2
53 86 5
53 87 3
53 88 3
53 89 2
53 90 1
53 91 2
53 92 3
53 93 3
53 94 4
53 95 2
53 96 1
53 97 1
53 98 4
53 99 4
53 100 2
54 55 5
54 56 4
54 57 4
54 58 3
54 59 2
54 60 4
54 61 4
54 62 4
54 63 2
54 64 1
54 65 1
54 66 1
54 67 5
54 68 5
54 69 2
54 70 2
54 71 1
54 72 5
54 73 2
54 74 2
54 75 3
54 76 4
54 77 5
54 78 3
54 79 2
54 80 5
54 81 5
54 82 4
54 83 5
54 84 3
54 85 5
54 86 5
54 87 3
54 88 1
54 89 3
54 90 4
54 91 5
54 92 3
54 93 2
54 94 4
54 95 3
54 96 3
54 97 1
54 98 3
54 99 1
54 100 1
55 56 4
55 57 1
55 58 2
55 59 4
55 60 5
55 61 2
55 62 5
55 63 2
55 64 3
55 65 1
55 66 3
55 67 2
55 68 3
55 69 3
55 70 2
55 71 3
55 72 4
55 73 4
55 74 4
55 75 4
55 76 1
55 77 5
55 78 2
55 79 5
55 80 5
55 81 3
55 82 3
55 83 3
55 84 1
55 85 4
55 86 4
55 87 3
55 88 3
55 89 4
55 90 2
55 91 4
55 92 5
55 93 1
55 94 3
55 95 4
55 96 3
55 97 5
55 98 4
55 99 5
55 100 2
56 57 4
56 58 3
56 59 2
56 60 4
56 61 2
56 62 2
56 63 1
56 64 5
56 65 3
56 66 1
56 67 2
56 68 1
56 69 4
56 70 2
56 71 3
56 72 2
56 73 4
56 74 3
56 75 5
56 76 5
56 77 4
56 78 2
56 79 4
56 80 4
56 81 1
56 82 5
56 83 3
56 84 4
56 85 2
56 86 2
56 87 2
56 88 5
56 89 4
56 90 3
56 91 3
56 92 1
56 93 2
56 94 2
56 95 5
56 96 2
56 97 3
56 98 4
56 99 1
56 100 1
57 58 5
57 59 3
57 60 4
57 61 1
57 62 4
57 63 5
57 64 3
57 65 1
57 66 2
57 67 5
57 68 1
57 69 1
57 70 2
57 71 5
57 72 2
57 73 1
57 74 4
57 75 2
57 76 4
57 77 2
57 78 5
57 79 1
57 80 5
57 81 5
57 82 4
57 83 4
57 84 3
57 85 5
57 86 3
57 87 1
57 88 4
57 89 1
57 90 2
57 91 4
57 92 3
57 93 3
57 94 1
57 95 3
57 96 2
57 97 5
57 98 4
57 99 1
57 100 3
58 59 5
58 60 3
58 61 1
58 62 3
58 63 5
58 64 2
58 65 1
58 66 5
58 67 2
58 68 1
58 69 5
58 70 5
58 71 2
58 72 1
58 73 5
58 74 4
58 75 5
58 76 2
58 77 4
58 78 1
58 79 2
58 80 3
58 81 2
58 82 3
58 83 4
58 84 2
58 85 5
58 86 3
58 87 2
58 88 4
58 89 3
58 90 2
58 91 1
58 92 1
58 93 2
58 94 3
58 95 5
58 96 3
58 97 3
58 98 2
58 99 3
58 100 3
59 60 5
59 61 4
59 62 3
59 63 1
59 64 3
59 65 1
59 66 3
59 67 4
59 68 4
59 69 2
59 70 3
59 71 1
59 72 5
59 73 1
59 74 4
59 75 2
59 76 1
59 77 2
59 78 5
59 79 4
59 80 4
59 81 2
59 82 1
59 83 1
59 84 3
59 85 1
59 86 4
59 87 5
59 88 2
59 89 4
59 90 3
59 91 3
59 92 5
59 93 3
59 94 2
59 95 1
59 96 5
59 97 3
59 98 4
59 99 3
59 100 1
60 61 2
60 62 3
60 63 5
60 64 2
60 65 3
60 66 1
60 67 2
60 68 1
60 69 1
60 70 3
60 71 3
60 72 4
60 73 4
60 74 4
60 75 2
60 76 2
60 77 4
60 78 1
60 79 3
60 80 5
60 81 5
60 82 3
60 83 1
60 84 3
60 85 2
60 86 2
60 87 4
60 88 2
60 89 1
60 90 5
60 91 1
60 92 1
60 93 2
60 94 1
60 95 5
60 96 2
60 97 1
60 98 4
60 99 1
60 100 4
61 62 2
61 63 5
61 64 2
61 65 2
61 66 3
61 67 2
61 68 2
61 69 4
61 70 4
61 71 5
61 72 5
61 73 5
61 74 3
61 75 2
61 76 4
61 77 3
61 78 5
61 79 1
61 80 2
61 81 3
61 82 5
61 83 1
61 84 3
61 85 5
61 86 1
61 87 4
61 88 5
61 89 4
61 90 4
61 91 5
61 92 3
61 93 2
61 94 4
61 95 2
61 96 3
61 97 5
61 98 2
61 99 2
61 100 1
62 63 5
62 64 5
62 65 5
62 66 1
62 67 1
62 68 1
62 69 4
62 70 1
62 71 1
62 72 5
62 73 4
62 74 4
62 75 1
62 76 1
62 77 3
62 78 3
62 79 3
62 80 5
62 81 3
62 82 4
62 83 2
62 84 4
62 85 2
62 86 2
62 87 5
62 88 3
62 89 5
62 90 5
62 91 5
62 92 1
62 93 5
62 94 4
62 95 3
62 96 4
62 97 2
62 98 1
62 99 1
62 100 3
63 64 5
63 65 1
63 66 1
63 67 2
63 68 2
63 69 1
63 70 3
63 71 3
63 72 3
63 73 2
63 74 1
63 75 3
63 76 5
63 77 2
63 78 3
63 79 5
63 80 3
63 81 4
63 82 4
63 83 4
63 84 4
63 85 1
63 86 2
63 87 4
63 88 4
63 89 3
63 90 3
63 91 4
63 92 2
63 93 1
63 94 1
63 95 5
63 96 5
63 97 2
63 98 1
63 99 5
63 100 3
64 65 4
64 66 5
64 67 4
64 68 3
64 69 4
64 70 5
64 71 2
64 72 3
64 73 1
64 74 4
64 75 5
64 76 3
64 77 4
64 78 4
64 79 5
64 80 3
64 81 3
64 82 3
64 83 2
64 84 3
64 85 1
64 86 5
64 87 3
64 88 5
64 89 1
64 90 4
64 91 2
64 92 3
64 93 5
64 94 5
64 95 3
64 96 1
64 97 4
64 98 1
64 99 5
64 100 3
65 66 2
65 67 2
65 68 1
65 69 4
65 70 5
65 71 1
65 72 3
65 73 4
65 74 3
65 75 2
65 76 1
65 77 2
65 78 4
65 79 1
65 80 5
65 81 5
65 82 2
65 83 4
65 84 4
65 85 3
65 86 4
65 87 3
65 88 2
65 89 1
65 90 1
65 91 1
65 92 1
65 93 3
65 94 3
65 95 3
65 96 5
65 97 2
65 98 4
65 99 2
65 100 4
66 67 3
66 68 2
66 69 5
66 70 5
66 71 4
66 72 3
66 73 1
66 74 2
66 75 2
66 76 4
66 77 4
66 78 1
66 79 4
66 80 4
66 81 5
66 82 1
66 83 2
66 84 5
66 85 2
66 86 5
66 87 4
66 88 3
66 89 1
66 90 3
66 91 2
66 92 4
66 93 1
66 94 1
66 95 5
66 96 4
66 97 1
66 98 1
66 99 5
66 100 1
67 68 3
67 69 5
67 70 3
67 71 5
67 72 2
67 73 2
67 74 4
67 75 3
67 76 5
67 77 5
67 78 1
67 79 1
67 80 1
67 81 4
67 82 1
67 83 5
67 84 1
67 85 5
67 86 5
67 87 2
67 88 1
67 89 2
67 90 4
67 91 4
67 92 1
67 93 3
67 94 3
67 95 5
67 96 1
67 97 4
67 98 2
67 99 1
67 100 3
68 69 3
68 70 3
68 71 4
68 72 3
68 73 2
68 74 4
68 75 3
68 76 5
68 77 3
68 78 5
68 79 3
68 80 3
68 81 5
68 82 4
68 83 4
68 84 1
68 85 1
68 86 4
68 87 4
68 88 3
68 89 1
68 90 5
68 91 3
68 92 2
68 93 3
68 94 1
68 95 1
68 96 3
68 97 5
68 98 3
68 99 2
68 100 1
69 70 4
69 71 1
69 72 2
69 73 1
69 74 1
69 75 5
69 76 1
69 77 2
69 78 4
69 79 2
69 80 4
69 81 2
69 82 5
69 83 2
69 84 3
69 85 1
69 86 3
69 87 4
69 88 4
69 89 3
69 90 5
69 91 3
69 92 2
69 93 3
69 94 3
69 95 5
69 96 4
69 97 4
69 98 4
69 99 4
69 100 1
70 71 4
70 72 1
70 73 4
70 74 1
70 75 1
70 76 3
70 77 5
70 78 1
70 79 5
70 80 1
70 81 4
70 82 1
70 83 5
70 84 1
70 85 2
70 86 5
70 87 5
70 88 3
70 89 1
70 90 2
70 91 3
70 92 4
70 93 2
70 94 5
70 95 4
70 96 2
70 97 3
70 98 2
70 99 1
70 100 5
71 72 1
71 73 2
71 74 1
71 75 3
71 76 2
71 77 3
71 78 5
71 79 1
71 80 4
71 81 4
71 82 5
71 83 1
71 84 4
71 85 4
71 86 3
71 87 4
71 88 1
71 89 4
71 90 4
71 91 2
71 92 5
71 93 4
71 94 1
71 95 5
71 96 1
71 97 3
71 98 5
71 99 2
71 100 2
72 73 2
72 74 1
72 75 1
72 76 2
72 77 5
72 78 1
72 79 5
72 80 2
72 81 3
72 82 2
72 83 2
72 84 2
72 85 5
72 86 5
72 87 2
72 88 2
72 89 5
72 90 4
72 91 1
72 92 5
72 93 5
72 94 1
72 95 2
72 96 3
72 97 1
72 98 2
72 99 1
72 100 1
73 74 1
73 75 2
73 76 4
73 77 2
73 78 5
73 79 4
73 80 4
73 81 4
73 82 3
73 83 3
73 84 3
73 85 1
73 86 2
73 87 1
73 88 3
73 89 5
73 90 4
73 91 5
73 92 2
73 93 1
73 94 3
73 95 3
73 96 4
73 97 4
73 98 5
73 99 5
73 100 1
74 75 4
74 76 2
74 77 4
74 78 3
74 79 4
74 80 1
74 81 2
74 82 2
74 83 5
74 84 3
74 85 4
74 86 3
74 87 3
74 88 4
74 89 3
74 90 2
74 91 3
74 92 5
74 93 2
74 94 2
74 95 2
74 96 5
74 97 2
74 98 4
74 99 2
74 100 2
75 76 2
75 77 5
75 78 4
75 79 1
75 80 2
75 81 2
75 82 3
75 83 3
75 84 1
75 85 4
75 86 4
75 87 2
75 88 4
75 89 3
75 90 4
75 91 3
75 92 4
75 93 1
75 94 2
75 95 4
75 96 1
75 97 1
75 98 5
75 99 3
75 100 2
76 77 4
76 78 5
76 79 3
76 80 2
76 81 4
76 82 1
76 83 2
76 84 1
76 85 2
76 86 3
76 87 2
76 88 3
76 89 3
76 90 1
76 91 5
76 92 4
76 93 4
76 94 3
76 95 4
76 96 5
76 97 1
76 98 5
76 99 4
76 100 3
77 78 1
77 79 2
77 80 3
77 81 4
77 82 1
77 83 4
77 84 3
77 85 3
77 86 3
77 87 5
77 88 1
77 89 2
77 90 3
77 91 3
77 92 1
77 93 3
77 94 1
77 95 5
77 96 1
77 97 2
77 98 3
77 99 3
77 100 5
78 79 4
78 80 3
78 81 2
78 82 1
78 83 1
78 84 4
78 85 4
78 86 2
78 87 4
78 88 1
78 89 3
78 90 4
78 91 2
78 92 2
78 93 2
78 94 5
78 95 2
78 96 5
78 97 5
78 98 5
78 99 2
78 100 4
79 80 2
79 81 2
79 82 4
79 83 5
79 84 5
79 85 1
79 86 5
79 87 1
79 88 4
79 89 4
79 90 4
79 91 2
79 92 1
79 93 2
79 94 2
79 95 2
79 96 3
79 97 1
79 98 1
79 99 5
79 100 1
80 81 2
80 82 1
80 83 1
80 84 4
80 85 5
80 86 4
80 87 3
80 88 2
80 89 2
80 90 1
80 91 1
80 92 2
80 93 2
80 94 4
80 95 1
80 96 5
80 97 2
80 98 4
80 99 5
80 100 3
81 82 1
81 83 4
81 84 2
81 85 1
81 86 3
81 87 2
81 88 3
81 89 1
81 90 5
81 91 2
81 92 1
81 93 1
81 94 1
81 95 2
81 96 4
81 97 2
81 98 3
81 99 2
81 100 3
82 83 3
82 84 2
82 85 5
82 86 3
82 87 2
82 88 3
82 89 1
82 90 1
82 91 1
82 92 3
82 93 2
82 94 5
82 95 1
82 96 4
82 97 2
82 98 2
82 99 5
82 100 3
83 84 1
83 85 5
83 86 4
83 87 4
83 88 2
83 89 2
83 90 4
83 91 5
83 92 2
83 93 4
83 94 4
83 95 4
83 96 5
83 97 5
83 98 5
83 99 2
83 100 4
84 85 2
84 86 2
84 87 3
84 88 4
84 89 3
84 90 5
84 91 5
84 92 2
84 93 3
84 94 2
84 95 1
84 96 1
84 97 4
84 98 5
84 99 5
84 100 4
85 86 2
85 87 1
85 88 3
85 89 3
85 90 5
85 91 5
85 92 2
85 93 2
85 94 1
85 95 1
85 96 4
85 97 4
85 98 2
85 99 2
85 100 5
86 87 5
86 88 5
86 89 1
86 90 1
86 91 1
86 92 3
86 93 2
86 94 1
86 95 4
86 96 2
86 97 3
86 98 1
86 99 3
86 100 4
87 88 1
87 89 1
87 90 5
87 91 3
87 92 1
87 93 4
87 94 4
87 95 2
87 96 4
87 97 1
87 98 4
87 99 1
87 100 2
88 89 2
88 90 5
88 91 2
88 92 5
88 93 2
88 94 1
88 95 1
88 96 4
88 97 1
88 98 1
88 99 4
88 100 5
89 90 5
89 91 1
89 92 3
89 93 2
89 94 1
89 95 1
89 96 3
89 97 3
89 98 2
89 99 2
89 100 3
90 91 2
90 92 1
90 93 4
90 94 3
90 95 2
90 96 1
90 97 5
90 98 3
90 99 2
90 100 5
91 92 2
91 93 1
91 94 2
91 95 3
91 96 1
91 97 3
91 98 3
91 99 5
91 100 3
92 93 3
92 94 1
92 95 3
92 96 2
92 97 5
92 98 2
92 99 2
92 100 2
93 94 5
93 95 3
93 96 4
93 97 3
93 98 4
93 99 2
93 100 2
94 95 1
94 96 2
94 97 1
94 98 3
94 99 2
94 100 1
95 96 5
95 97 1
95 98 2
95 99 3
95 100 3
96 97 5
96 98 3
96 99 1
96 100 4
97 98 5
97 99 3
97 100 1
98 99 1
98 100 5
99 100 5
